(set-option :produce-models true)
(set-logic QF_LRA)
(set-info :notes | Strip-packing problem.|)
(declare-fun x0 () Real)
(declare-fun y0 () Real)
(declare-fun x1 () Real)
(declare-fun y1 () Real)
(declare-fun x2 () Real)
(declare-fun y2 () Real)
(declare-fun x3 () Real)
(declare-fun y3 () Real)
(declare-fun x4 () Real)
(declare-fun y4 () Real)
(declare-fun x5 () Real)
(declare-fun y5 () Real)
(declare-fun x6 () Real)
(declare-fun y6 () Real)
(declare-fun x7 () Real)
(declare-fun y7 () Real)
(declare-fun x8 () Real)
(declare-fun y8 () Real)
(declare-fun x9 () Real)
(declare-fun y9 () Real)
(declare-fun x10 () Real)
(declare-fun y10 () Real)
(declare-fun x11 () Real)
(declare-fun y11 () Real)
(declare-fun x12 () Real)
(declare-fun y12 () Real)
(declare-fun x13 () Real)
(declare-fun y13 () Real)
(declare-fun x14 () Real)
(declare-fun y14 () Real)
(declare-fun z () Real)
(declare-fun c () Real)
(assert (and (= c z) (and (>= x0 0) 
(and (>= y0 0) 
(and (>= x1 0) 
(and (>= y1 0) 
(and (>= x2 0) 
(and (>= y2 0) 
(and (>= x3 0) 
(and (>= y3 0) 
(and (>= x4 0) 
(and (>= y4 0) 
(and (>= x5 0) 
(and (>= y5 0) 
(and (>= x6 0) 
(and (>= y6 0) 
(and (>= x7 0) 
(and (>= y7 0) 
(and (>= x8 0) 
(and (>= y8 0) 
(and (>= x9 0) 
(and (>= y9 0) 
(and (>= x10 0) 
(and (>= y10 0) 
(and (>= x11 0) 
(and (>= y11 0) 
(and (>= x12 0) 
(and (>= y12 0) 
(and (>= x13 0) 
(and (>= y13 0) 
(and (>= x14 0) 
(and (>= y14 0) 
(and (>= z 0) 
(and (>= c 0) 
(and (<= (+ x0 0.6290987915) z) 
(and (<= 0.9934378214 y0) 
(and (<= y0 1.0) 
(and (<= x0 (- 5.6233232128 0.6290987915)) 
(and (>= x0 0) 
(and (<= (+ x1 0.8232291021) z) 
(and (<= 0.9650121245 y1) 
(and (<= y1 1.0) 
(and (<= x1 (- 5.6233232128 0.8232291021)) 
(and (>= x1 0) 
(and (<= (+ x2 0.7962459129) z) 
(and (<= 0.9602590675 y2) 
(and (<= y2 1.0) 
(and (<= x2 (- 5.6233232128 0.7962459129)) 
(and (>= x2 0) 
(and (<= (+ x3 0.5605387153) z) 
(and (<= 0.8769824305 y3) 
(and (<= y3 1.0) 
(and (<= x3 (- 5.6233232128 0.5605387153)) 
(and (>= x3 0) 
(and (<= (+ x4 0.8394138666) z) 
(and (<= 0.8472806441 y4) 
(and (<= y4 1.0) 
(and (<= x4 (- 5.6233232128 0.8394138666)) 
(and (>= x4 0) 
(and (<= (+ x5 0.9044817649) z) 
(and (<= 0.6917804312 y5) 
(and (<= y5 1.0) 
(and (<= x5 (- 5.6233232128 0.9044817649)) 
(and (>= x5 0) 
(and (<= (+ x6 0.0279063324) z) 
(and (<= 0.5847068111 y6) 
(and (<= y6 1.0) 
(and (<= x6 (- 5.6233232128 0.0279063324)) 
(and (>= x6 0) 
(and (<= (+ x7 0.0551238835) z) 
(and (<= 0.5705336221 y7) 
(and (<= y7 1.0) 
(and (<= x7 (- 5.6233232128 0.0551238835)) 
(and (>= x7 0) 
(and (<= (+ x8 0.9872848436) z) 
(and (<= 0.35006861 y8) 
(and (<= y8 1.0) 
(and (<= x8 (- 5.6233232128 0.9872848436)) 
(and (>= x8 0) 
(and (<= (+ x9 0.1914712397) z) 
(and (<= 0.3492399553 y9) 
(and (<= y9 1.0) 
(and (<= x9 (- 5.6233232128 0.1914712397)) 
(and (>= x9 0) 
(and (<= (+ x10 0.0927042299) z) 
(and (<= 0.2665074937 y10) 
(and (<= y10 1.0) 
(and (<= x10 (- 5.6233232128 0.0927042299)) 
(and (>= x10 0) 
(and (<= (+ x11 0.0310190585) z) 
(and (<= 0.2357998883 y11) 
(and (<= y11 1.0) 
(and (<= x11 (- 5.6233232128 0.0310190585)) 
(and (>= x11 0) 
(and (<= (+ x12 0.9252062431) z) 
(and (<= 0.2339992642 y12) 
(and (<= y12 1.0) 
(and (<= x12 (- 5.6233232128 0.9252062431)) 
(and (>= x12 0) 
(and (<= (+ x13 0.5992975626) z) 
(and (<= 0.118350181 y13) 
(and (<= y13 1.0) 
(and (<= x13 (- 5.6233232128 0.5992975626)) 
(and (>= x13 0) 
(and (<= (+ x14 0.3783860484) z) 
(and (<= 0.0805458435 y14) 
(and (<= y14 1.0) 
(and (<= x14 (- 5.6233232128 0.3783860484)) 
(and (>= x14 0) 
(and (<= c 5.6233232128) 
(and (or (<= (+ x0 0.6290987915) x1) (or (<= (+ x1 0.8232291021) x0) (or (>= (- y0 0.9934378214) y1) (or (>= (- y1 0.9650121245) y0))))) 
(and (or (<= (+ x0 0.6290987915) x2) (or (<= (+ x2 0.7962459129) x0) (or (>= (- y0 0.9934378214) y2) (or (>= (- y2 0.9602590675) y0))))) 
(and (or (<= (+ x0 0.6290987915) x3) (or (<= (+ x3 0.5605387153) x0) (or (>= (- y0 0.9934378214) y3) (or (>= (- y3 0.8769824305) y0))))) 
(and (or (<= (+ x0 0.6290987915) x4) (or (<= (+ x4 0.8394138666) x0) (or (>= (- y0 0.9934378214) y4) (or (>= (- y4 0.8472806441) y0))))) 
(and (or (<= (+ x0 0.6290987915) x5) (or (<= (+ x5 0.9044817649) x0) (or (>= (- y0 0.9934378214) y5) (or (>= (- y5 0.6917804312) y0))))) 
(and (or (<= (+ x0 0.6290987915) x6) (or (<= (+ x6 0.0279063324) x0) (or (>= (- y0 0.9934378214) y6) (or (>= (- y6 0.5847068111) y0))))) 
(and (or (<= (+ x0 0.6290987915) x7) (or (<= (+ x7 0.0551238835) x0) (or (>= (- y0 0.9934378214) y7) (or (>= (- y7 0.5705336221) y0))))) 
(and (or (<= (+ x0 0.6290987915) x8) (or (<= (+ x8 0.9872848436) x0) (or (>= (- y0 0.9934378214) y8) (or (>= (- y8 0.35006861) y0))))) 
(and (or (<= (+ x0 0.6290987915) x9) (or (<= (+ x9 0.1914712397) x0) (or (>= (- y0 0.9934378214) y9) (or (>= (- y9 0.3492399553) y0))))) 
(and (or (<= (+ x0 0.6290987915) x10) (or (<= (+ x10 0.0927042299) x0) (or (>= (- y0 0.9934378214) y10) (or (>= (- y10 0.2665074937) y0))))) 
(and (or (<= (+ x0 0.6290987915) x11) (or (<= (+ x11 0.0310190585) x0) (or (>= (- y0 0.9934378214) y11) (or (>= (- y11 0.2357998883) y0))))) 
(and (or (<= (+ x0 0.6290987915) x12) (or (<= (+ x12 0.9252062431) x0) (or (>= (- y0 0.9934378214) y12) (or (>= (- y12 0.2339992642) y0))))) 
(and (or (<= (+ x0 0.6290987915) x13) (or (<= (+ x13 0.5992975626) x0) (or (>= (- y0 0.9934378214) y13) (or (>= (- y13 0.118350181) y0))))) 
(and (or (<= (+ x0 0.6290987915) x14) (or (<= (+ x14 0.3783860484) x0) (or (>= (- y0 0.9934378214) y14) (or (>= (- y14 0.0805458435) y0))))) 
(and (or (<= (+ x1 0.8232291021) x2) (or (<= (+ x2 0.7962459129) x1) (or (>= (- y1 0.9650121245) y2) (or (>= (- y2 0.9602590675) y1))))) 
(and (or (<= (+ x1 0.8232291021) x3) (or (<= (+ x3 0.5605387153) x1) (or (>= (- y1 0.9650121245) y3) (or (>= (- y3 0.8769824305) y1))))) 
(and (or (<= (+ x1 0.8232291021) x4) (or (<= (+ x4 0.8394138666) x1) (or (>= (- y1 0.9650121245) y4) (or (>= (- y4 0.8472806441) y1))))) 
(and (or (<= (+ x1 0.8232291021) x5) (or (<= (+ x5 0.9044817649) x1) (or (>= (- y1 0.9650121245) y5) (or (>= (- y5 0.6917804312) y1))))) 
(and (or (<= (+ x1 0.8232291021) x6) (or (<= (+ x6 0.0279063324) x1) (or (>= (- y1 0.9650121245) y6) (or (>= (- y6 0.5847068111) y1))))) 
(and (or (<= (+ x1 0.8232291021) x7) (or (<= (+ x7 0.0551238835) x1) (or (>= (- y1 0.9650121245) y7) (or (>= (- y7 0.5705336221) y1))))) 
(and (or (<= (+ x1 0.8232291021) x8) (or (<= (+ x8 0.9872848436) x1) (or (>= (- y1 0.9650121245) y8) (or (>= (- y8 0.35006861) y1))))) 
(and (or (<= (+ x1 0.8232291021) x9) (or (<= (+ x9 0.1914712397) x1) (or (>= (- y1 0.9650121245) y9) (or (>= (- y9 0.3492399553) y1))))) 
(and (or (<= (+ x1 0.8232291021) x10) (or (<= (+ x10 0.0927042299) x1) (or (>= (- y1 0.9650121245) y10) (or (>= (- y10 0.2665074937) y1))))) 
(and (or (<= (+ x1 0.8232291021) x11) (or (<= (+ x11 0.0310190585) x1) (or (>= (- y1 0.9650121245) y11) (or (>= (- y11 0.2357998883) y1))))) 
(and (or (<= (+ x1 0.8232291021) x12) (or (<= (+ x12 0.9252062431) x1) (or (>= (- y1 0.9650121245) y12) (or (>= (- y12 0.2339992642) y1))))) 
(and (or (<= (+ x1 0.8232291021) x13) (or (<= (+ x13 0.5992975626) x1) (or (>= (- y1 0.9650121245) y13) (or (>= (- y13 0.118350181) y1))))) 
(and (or (<= (+ x1 0.8232291021) x14) (or (<= (+ x14 0.3783860484) x1) (or (>= (- y1 0.9650121245) y14) (or (>= (- y14 0.0805458435) y1))))) 
(and (or (<= (+ x2 0.7962459129) x3) (or (<= (+ x3 0.5605387153) x2) (or (>= (- y2 0.9602590675) y3) (or (>= (- y3 0.8769824305) y2))))) 
(and (or (<= (+ x2 0.7962459129) x4) (or (<= (+ x4 0.8394138666) x2) (or (>= (- y2 0.9602590675) y4) (or (>= (- y4 0.8472806441) y2))))) 
(and (or (<= (+ x2 0.7962459129) x5) (or (<= (+ x5 0.9044817649) x2) (or (>= (- y2 0.9602590675) y5) (or (>= (- y5 0.6917804312) y2))))) 
(and (or (<= (+ x2 0.7962459129) x6) (or (<= (+ x6 0.0279063324) x2) (or (>= (- y2 0.9602590675) y6) (or (>= (- y6 0.5847068111) y2))))) 
(and (or (<= (+ x2 0.7962459129) x7) (or (<= (+ x7 0.0551238835) x2) (or (>= (- y2 0.9602590675) y7) (or (>= (- y7 0.5705336221) y2))))) 
(and (or (<= (+ x2 0.7962459129) x8) (or (<= (+ x8 0.9872848436) x2) (or (>= (- y2 0.9602590675) y8) (or (>= (- y8 0.35006861) y2))))) 
(and (or (<= (+ x2 0.7962459129) x9) (or (<= (+ x9 0.1914712397) x2) (or (>= (- y2 0.9602590675) y9) (or (>= (- y9 0.3492399553) y2))))) 
(and (or (<= (+ x2 0.7962459129) x10) (or (<= (+ x10 0.0927042299) x2) (or (>= (- y2 0.9602590675) y10) (or (>= (- y10 0.2665074937) y2))))) 
(and (or (<= (+ x2 0.7962459129) x11) (or (<= (+ x11 0.0310190585) x2) (or (>= (- y2 0.9602590675) y11) (or (>= (- y11 0.2357998883) y2))))) 
(and (or (<= (+ x2 0.7962459129) x12) (or (<= (+ x12 0.9252062431) x2) (or (>= (- y2 0.9602590675) y12) (or (>= (- y12 0.2339992642) y2))))) 
(and (or (<= (+ x2 0.7962459129) x13) (or (<= (+ x13 0.5992975626) x2) (or (>= (- y2 0.9602590675) y13) (or (>= (- y13 0.118350181) y2))))) 
(and (or (<= (+ x2 0.7962459129) x14) (or (<= (+ x14 0.3783860484) x2) (or (>= (- y2 0.9602590675) y14) (or (>= (- y14 0.0805458435) y2))))) 
(and (or (<= (+ x3 0.5605387153) x4) (or (<= (+ x4 0.8394138666) x3) (or (>= (- y3 0.8769824305) y4) (or (>= (- y4 0.8472806441) y3))))) 
(and (or (<= (+ x3 0.5605387153) x5) (or (<= (+ x5 0.9044817649) x3) (or (>= (- y3 0.8769824305) y5) (or (>= (- y5 0.6917804312) y3))))) 
(and (or (<= (+ x3 0.5605387153) x6) (or (<= (+ x6 0.0279063324) x3) (or (>= (- y3 0.8769824305) y6) (or (>= (- y6 0.5847068111) y3))))) 
(and (or (<= (+ x3 0.5605387153) x7) (or (<= (+ x7 0.0551238835) x3) (or (>= (- y3 0.8769824305) y7) (or (>= (- y7 0.5705336221) y3))))) 
(and (or (<= (+ x3 0.5605387153) x8) (or (<= (+ x8 0.9872848436) x3) (or (>= (- y3 0.8769824305) y8) (or (>= (- y8 0.35006861) y3))))) 
(and (or (<= (+ x3 0.5605387153) x9) (or (<= (+ x9 0.1914712397) x3) (or (>= (- y3 0.8769824305) y9) (or (>= (- y9 0.3492399553) y3))))) 
(and (or (<= (+ x3 0.5605387153) x10) (or (<= (+ x10 0.0927042299) x3) (or (>= (- y3 0.8769824305) y10) (or (>= (- y10 0.2665074937) y3))))) 
(and (or (<= (+ x3 0.5605387153) x11) (or (<= (+ x11 0.0310190585) x3) (or (>= (- y3 0.8769824305) y11) (or (>= (- y11 0.2357998883) y3))))) 
(and (or (<= (+ x3 0.5605387153) x12) (or (<= (+ x12 0.9252062431) x3) (or (>= (- y3 0.8769824305) y12) (or (>= (- y12 0.2339992642) y3))))) 
(and (or (<= (+ x3 0.5605387153) x13) (or (<= (+ x13 0.5992975626) x3) (or (>= (- y3 0.8769824305) y13) (or (>= (- y13 0.118350181) y3))))) 
(and (or (<= (+ x3 0.5605387153) x14) (or (<= (+ x14 0.3783860484) x3) (or (>= (- y3 0.8769824305) y14) (or (>= (- y14 0.0805458435) y3))))) 
(and (or (<= (+ x4 0.8394138666) x5) (or (<= (+ x5 0.9044817649) x4) (or (>= (- y4 0.8472806441) y5) (or (>= (- y5 0.6917804312) y4))))) 
(and (or (<= (+ x4 0.8394138666) x6) (or (<= (+ x6 0.0279063324) x4) (or (>= (- y4 0.8472806441) y6) (or (>= (- y6 0.5847068111) y4))))) 
(and (or (<= (+ x4 0.8394138666) x7) (or (<= (+ x7 0.0551238835) x4) (or (>= (- y4 0.8472806441) y7) (or (>= (- y7 0.5705336221) y4))))) 
(and (or (<= (+ x4 0.8394138666) x8) (or (<= (+ x8 0.9872848436) x4) (or (>= (- y4 0.8472806441) y8) (or (>= (- y8 0.35006861) y4))))) 
(and (or (<= (+ x4 0.8394138666) x9) (or (<= (+ x9 0.1914712397) x4) (or (>= (- y4 0.8472806441) y9) (or (>= (- y9 0.3492399553) y4))))) 
(and (or (<= (+ x4 0.8394138666) x10) (or (<= (+ x10 0.0927042299) x4) (or (>= (- y4 0.8472806441) y10) (or (>= (- y10 0.2665074937) y4))))) 
(and (or (<= (+ x4 0.8394138666) x11) (or (<= (+ x11 0.0310190585) x4) (or (>= (- y4 0.8472806441) y11) (or (>= (- y11 0.2357998883) y4))))) 
(and (or (<= (+ x4 0.8394138666) x12) (or (<= (+ x12 0.9252062431) x4) (or (>= (- y4 0.8472806441) y12) (or (>= (- y12 0.2339992642) y4))))) 
(and (or (<= (+ x4 0.8394138666) x13) (or (<= (+ x13 0.5992975626) x4) (or (>= (- y4 0.8472806441) y13) (or (>= (- y13 0.118350181) y4))))) 
(and (or (<= (+ x4 0.8394138666) x14) (or (<= (+ x14 0.3783860484) x4) (or (>= (- y4 0.8472806441) y14) (or (>= (- y14 0.0805458435) y4))))) 
(and (or (<= (+ x5 0.9044817649) x6) (or (<= (+ x6 0.0279063324) x5) (or (>= (- y5 0.6917804312) y6) (or (>= (- y6 0.5847068111) y5))))) 
(and (or (<= (+ x5 0.9044817649) x7) (or (<= (+ x7 0.0551238835) x5) (or (>= (- y5 0.6917804312) y7) (or (>= (- y7 0.5705336221) y5))))) 
(and (or (<= (+ x5 0.9044817649) x8) (or (<= (+ x8 0.9872848436) x5) (or (>= (- y5 0.6917804312) y8) (or (>= (- y8 0.35006861) y5))))) 
(and (or (<= (+ x5 0.9044817649) x9) (or (<= (+ x9 0.1914712397) x5) (or (>= (- y5 0.6917804312) y9) (or (>= (- y9 0.3492399553) y5))))) 
(and (or (<= (+ x5 0.9044817649) x10) (or (<= (+ x10 0.0927042299) x5) (or (>= (- y5 0.6917804312) y10) (or (>= (- y10 0.2665074937) y5))))) 
(and (or (<= (+ x5 0.9044817649) x11) (or (<= (+ x11 0.0310190585) x5) (or (>= (- y5 0.6917804312) y11) (or (>= (- y11 0.2357998883) y5))))) 
(and (or (<= (+ x5 0.9044817649) x12) (or (<= (+ x12 0.9252062431) x5) (or (>= (- y5 0.6917804312) y12) (or (>= (- y12 0.2339992642) y5))))) 
(and (or (<= (+ x5 0.9044817649) x13) (or (<= (+ x13 0.5992975626) x5) (or (>= (- y5 0.6917804312) y13) (or (>= (- y13 0.118350181) y5))))) 
(and (or (<= (+ x5 0.9044817649) x14) (or (<= (+ x14 0.3783860484) x5) (or (>= (- y5 0.6917804312) y14) (or (>= (- y14 0.0805458435) y5))))) 
(and (or (<= (+ x6 0.0279063324) x7) (or (<= (+ x7 0.0551238835) x6) (or (>= (- y6 0.5847068111) y7) (or (>= (- y7 0.5705336221) y6))))) 
(and (or (<= (+ x6 0.0279063324) x8) (or (<= (+ x8 0.9872848436) x6) (or (>= (- y6 0.5847068111) y8) (or (>= (- y8 0.35006861) y6))))) 
(and (or (<= (+ x6 0.0279063324) x9) (or (<= (+ x9 0.1914712397) x6) (or (>= (- y6 0.5847068111) y9) (or (>= (- y9 0.3492399553) y6))))) 
(and (or (<= (+ x6 0.0279063324) x10) (or (<= (+ x10 0.0927042299) x6) (or (>= (- y6 0.5847068111) y10) (or (>= (- y10 0.2665074937) y6))))) 
(and (or (<= (+ x6 0.0279063324) x11) (or (<= (+ x11 0.0310190585) x6) (or (>= (- y6 0.5847068111) y11) (or (>= (- y11 0.2357998883) y6))))) 
(and (or (<= (+ x6 0.0279063324) x12) (or (<= (+ x12 0.9252062431) x6) (or (>= (- y6 0.5847068111) y12) (or (>= (- y12 0.2339992642) y6))))) 
(and (or (<= (+ x6 0.0279063324) x13) (or (<= (+ x13 0.5992975626) x6) (or (>= (- y6 0.5847068111) y13) (or (>= (- y13 0.118350181) y6))))) 
(and (or (<= (+ x6 0.0279063324) x14) (or (<= (+ x14 0.3783860484) x6) (or (>= (- y6 0.5847068111) y14) (or (>= (- y14 0.0805458435) y6))))) 
(and (or (<= (+ x7 0.0551238835) x8) (or (<= (+ x8 0.9872848436) x7) (or (>= (- y7 0.5705336221) y8) (or (>= (- y8 0.35006861) y7))))) 
(and (or (<= (+ x7 0.0551238835) x9) (or (<= (+ x9 0.1914712397) x7) (or (>= (- y7 0.5705336221) y9) (or (>= (- y9 0.3492399553) y7))))) 
(and (or (<= (+ x7 0.0551238835) x10) (or (<= (+ x10 0.0927042299) x7) (or (>= (- y7 0.5705336221) y10) (or (>= (- y10 0.2665074937) y7))))) 
(and (or (<= (+ x7 0.0551238835) x11) (or (<= (+ x11 0.0310190585) x7) (or (>= (- y7 0.5705336221) y11) (or (>= (- y11 0.2357998883) y7))))) 
(and (or (<= (+ x7 0.0551238835) x12) (or (<= (+ x12 0.9252062431) x7) (or (>= (- y7 0.5705336221) y12) (or (>= (- y12 0.2339992642) y7))))) 
(and (or (<= (+ x7 0.0551238835) x13) (or (<= (+ x13 0.5992975626) x7) (or (>= (- y7 0.5705336221) y13) (or (>= (- y13 0.118350181) y7))))) 
(and (or (<= (+ x7 0.0551238835) x14) (or (<= (+ x14 0.3783860484) x7) (or (>= (- y7 0.5705336221) y14) (or (>= (- y14 0.0805458435) y7))))) 
(and (or (<= (+ x8 0.9872848436) x9) (or (<= (+ x9 0.1914712397) x8) (or (>= (- y8 0.35006861) y9) (or (>= (- y9 0.3492399553) y8))))) 
(and (or (<= (+ x8 0.9872848436) x10) (or (<= (+ x10 0.0927042299) x8) (or (>= (- y8 0.35006861) y10) (or (>= (- y10 0.2665074937) y8))))) 
(and (or (<= (+ x8 0.9872848436) x11) (or (<= (+ x11 0.0310190585) x8) (or (>= (- y8 0.35006861) y11) (or (>= (- y11 0.2357998883) y8))))) 
(and (or (<= (+ x8 0.9872848436) x12) (or (<= (+ x12 0.9252062431) x8) (or (>= (- y8 0.35006861) y12) (or (>= (- y12 0.2339992642) y8))))) 
(and (or (<= (+ x8 0.9872848436) x13) (or (<= (+ x13 0.5992975626) x8) (or (>= (- y8 0.35006861) y13) (or (>= (- y13 0.118350181) y8))))) 
(and (or (<= (+ x8 0.9872848436) x14) (or (<= (+ x14 0.3783860484) x8) (or (>= (- y8 0.35006861) y14) (or (>= (- y14 0.0805458435) y8))))) 
(and (or (<= (+ x9 0.1914712397) x10) (or (<= (+ x10 0.0927042299) x9) (or (>= (- y9 0.3492399553) y10) (or (>= (- y10 0.2665074937) y9))))) 
(and (or (<= (+ x9 0.1914712397) x11) (or (<= (+ x11 0.0310190585) x9) (or (>= (- y9 0.3492399553) y11) (or (>= (- y11 0.2357998883) y9))))) 
(and (or (<= (+ x9 0.1914712397) x12) (or (<= (+ x12 0.9252062431) x9) (or (>= (- y9 0.3492399553) y12) (or (>= (- y12 0.2339992642) y9))))) 
(and (or (<= (+ x9 0.1914712397) x13) (or (<= (+ x13 0.5992975626) x9) (or (>= (- y9 0.3492399553) y13) (or (>= (- y13 0.118350181) y9))))) 
(and (or (<= (+ x9 0.1914712397) x14) (or (<= (+ x14 0.3783860484) x9) (or (>= (- y9 0.3492399553) y14) (or (>= (- y14 0.0805458435) y9))))) 
(and (or (<= (+ x10 0.0927042299) x11) (or (<= (+ x11 0.0310190585) x10) (or (>= (- y10 0.2665074937) y11) (or (>= (- y11 0.2357998883) y10))))) 
(and (or (<= (+ x10 0.0927042299) x12) (or (<= (+ x12 0.9252062431) x10) (or (>= (- y10 0.2665074937) y12) (or (>= (- y12 0.2339992642) y10))))) 
(and (or (<= (+ x10 0.0927042299) x13) (or (<= (+ x13 0.5992975626) x10) (or (>= (- y10 0.2665074937) y13) (or (>= (- y13 0.118350181) y10))))) 
(and (or (<= (+ x10 0.0927042299) x14) (or (<= (+ x14 0.3783860484) x10) (or (>= (- y10 0.2665074937) y14) (or (>= (- y14 0.0805458435) y10))))) 
(and (or (<= (+ x11 0.0310190585) x12) (or (<= (+ x12 0.9252062431) x11) (or (>= (- y11 0.2357998883) y12) (or (>= (- y12 0.2339992642) y11))))) 
(and (or (<= (+ x11 0.0310190585) x13) (or (<= (+ x13 0.5992975626) x11) (or (>= (- y11 0.2357998883) y13) (or (>= (- y13 0.118350181) y11))))) 
(and (or (<= (+ x11 0.0310190585) x14) (or (<= (+ x14 0.3783860484) x11) (or (>= (- y11 0.2357998883) y14) (or (>= (- y14 0.0805458435) y11))))) 
(and (or (<= (+ x12 0.9252062431) x13) (or (<= (+ x13 0.5992975626) x12) (or (>= (- y12 0.2339992642) y13) (or (>= (- y13 0.118350181) y12))))) 
(and (or (<= (+ x12 0.9252062431) x14) (or (<= (+ x14 0.3783860484) x12) (or (>= (- y12 0.2339992642) y14) (or (>= (- y14 0.0805458435) y12))))) 
(and (or (<= (+ x13 0.5992975626) x14) (or (<= (+ x14 0.3783860484) x13) (or (>= (- y13 0.118350181) y14) (or (>= (- y14 0.0805458435) y13))))) )))))))))))))))))))))))))))))))))))))))))))))))))))))))))))))))))))))))))))))))))))))))))))))))))))))))))))))))))))))))))))))))))))))))))))))))))))))))))))))))))))))))))))))))))))))))))))))))))))))))))))))))))))))))
(minimize c)
(check-sat)
(get-objectives)
(exit)
